75 
300 
19.1 24.3 0 0
18.2 24 0 -14
12.6 24.9 -20 -68
14.4 28 -20 -133
16.9 28.1 -20 -115
20.7 28.2 20 -14
12.5 26.6 -20 -104
21.8 27.3 20 -28
12.5 22.6 -20 -84
22.5 17 -30 -133
19.9 15 -30 -90
14.9 15.1 30 -21
11.5 18.6 -30 -65
12.4 29.8 30 -25
17.8 28.1 30 -10
9.1 29.8 40 -29
10 32.6 40 -15
13.9 33.1 -40 -75
19.95 10.3 -40 -62
15.2 8 -40 -77
14.7 31.2 50 -23
7.4 36.5 50 -16
21 25.5 -50 -81
18 25.3 10 -10
19.5 24.7 -10 -75
21.4 21.8 -10 -130
16 21.4 10 -16
18.65 26.2 10 -28
17.9 28.9 10 -28
14.3 19.9 -20 -68
17 19 -20 -116
10.8 21 -20 -135
15.7 23.7 10 -19
